54809
16, 39, 46, 36, 15, 52, 42, 33, 1, 27, 31, 25, 11, 45, 2, 14, 9, 53, 34, 12, 18, 4, 30, 47, 54, 26, 55, 28, 6, 3, 43, 40, 7, 37, 51, 13, 32, 44, 8, 38, 50, 20, 24, 35, 5, 41, 19, 49, 48, 17, 23, 21, 29, 22, 10
